40 119
8 16 26 28 36
12 17 22 36 37 38
8 16 20 22 27 28
24 29 33 34 38
6 17 20 36
6 10 19 23 36
4 5 8 18
10 12 29 34 35
0 2 6 10 11 30 33
10 13 17 22 23 25 34
5 7 8 9 22 24 29 30 37 39
8 33 35 38
1 7 25 29 33 35 38
9 14 17 19 29 33 35
13 19 21
17 21 37
0 2 21 23 35 36
1 4 9 13 15 26 34
6 26 32
5 13 14 20 26 27 37
2 4 19 29 32 35 39
14 15 16 23 30 34 39
1 2 9 10 28 32
5 9 16 21 24 29 32 35
3 10 23
9 12 28 32 39
0 17 18 19 28 32
2 19 30 33 35 36
0 2 22 25 26 37
3 7 10 12 13 20 23 31 34 35 38 39
8 10 21 27 37
29
18 20 22 23 25 26
3 8 11 12 13 27 35 39
3 7 9 17 21 29
7 11 12 13 16 20 23 27 29 33 36
0 1 4 5 16 27 35
1 10 15 19 28 30
1 3 11 12 29
10 20 21 25 29 33
